
Gurobi 11.0.3 (linux64) logging started Mon Aug 25 15:05:41 2025

Set parameter LogFile to value "/home/yihong/Coding/OR_SUC/SUC_epstheta_results_bigM100000_thread4/case24_ieee_rts_theta0.1_epsilon0.1_gurobi_seed170000_num_gen100_N_WDR50_load_scaling_factor1_proposed_eps_T10quadra_cost_bc1.01.txt"
Set parameter TimeLimit to value 3600
Gurobi Optimizer version 11.0.3 build v11.0.3rc0 (linux64 - "Ubuntu 20.04.6 LTS")

CPU model: AMD EPYC 7532 32-Core Processor, instruction set [SSE2|AVX|AVX2]
Thread count: 64 physical cores, 128 logical processors, using up to 4 threads

Academic license 2399124 - for non-commercial use only - registered to yi___@ed.ac.uk
Optimize a model with 23642 rows, 12451 columns and 547142 nonzeros
Model fingerprint: 0xf12a12b9
Model has 1000 quadratic constraints
Variable types: 11451 continuous, 1000 integer (1000 binary)
Coefficient statistics:
  Matrix range     [3e-04, 2e+03]
  QMatrix range    [2e-03, 8e-03]
  QLMatrix range   [5e-02, 6e+01]
  Objective range  [1e+00, 1e+00]
  Bounds range     [1e+00, 1e+00]
  RHS range        [1e+00, 9e+03]
Presolve removed 19395 rows and 5373 columns
Presolve time: 0.16s
Presolved: 4247 rows, 7078 columns, 24061 nonzeros
Presolved model has 1000 quadratic constraint(s)
Variable types: 6078 continuous, 1000 integer (1000 binary)

Root relaxation: objective 1.146207e+04, 3150 iterations, 0.07 seconds (0.08 work units)

    Nodes    |    Current Node    |     Objective Bounds      |     Work
 Expl Unexpl |  Obj  Depth IntInf | Incumbent    BestBd   Gap | It/Node Time

     0     0 11462.0744    0   10          - 11462.0744      -     -    0s
     0     0 132998.300    0  260          - 132998.300      -     -    0s
     0     0 133000.223    0  260          - 133000.223      -     -    0s
     0     0 245766.258    0  160          - 245766.258      -     -    0s
     0     0 245774.098    0  160          - 245774.098      -     -    0s
     0     0 245857.379    0  100          - 245857.379      -     -    0s
     0     0 245862.965    0  100          - 245862.965      -     -    0s
     0     0 245863.046    0  100          - 245863.046      -     -    0s
     0     2 245863.046    0  100          - 245863.046      -     -    1s
H  127   128                    245943.11673 245880.748  0.03%  11.4    1s
*  127   128              40    245943.11673 245880.748  0.03%  11.5    1s

Cutting planes:
  Gomory: 64
  Implied bound: 253
  MIR: 40
  Flow cover: 113

Explored 129 nodes (9973 simplex iterations) in 2.09 seconds (1.91 work units)
Thread count was 4 (of 128 available processors)

Solution count 2: 245943 245943 

Optimal solution found (tolerance 1.00e-03)
Warning: max constraint violation (1.2388e-07) exceeds tolerance
Best objective 2.459431167301e+05, best bound 2.458807475979e+05, gap 0.0254%

Gurobi 11.0.3 (linux64) logging started Mon Aug 25 15:05:44 2025

Set parameter LogFile to value "/home/yihong/Coding/OR_SUC/SUC_epstheta_results_bigM100000_thread4/case24_ieee_rts_theta0.1_epsilon0.1_gurobi_seed170000_num_gen100_N_WDR50_load_scaling_factor1_proposed_eps_T10quadra_cost_bc1.01.txt"
Set parameter TimeLimit to value 3600
Gurobi Optimizer version 11.0.3 build v11.0.3rc0 (linux64 - "Ubuntu 20.04.6 LTS")

CPU model: AMD EPYC 7532 32-Core Processor, instruction set [SSE2|AVX|AVX2]
Thread count: 64 physical cores, 128 logical processors, using up to 4 threads

Academic license 2399124 - for non-commercial use only - registered to yi___@ed.ac.uk
Optimize a model with 23642 rows, 12452 columns and 550191 nonzeros
Model fingerprint: 0xd2feebc0
Model has 1001 quadratic constraints
Variable types: 11452 continuous, 1000 integer (1000 binary)
Coefficient statistics:
  Matrix range     [3e-04, 2e+03]
  QMatrix range    [2e-03, 5e+01]
  QLMatrix range   [5e-02, 6e+01]
  Objective range  [1e+00, 1e+00]
  Bounds range     [1e-01, 1e+00]
  RHS range        [7e-01, 2e+05]
  QRHS range       [5e+00, 5e+00]
Presolve removed 17641 rows and 4495 columns
Presolve time: 0.19s
Presolved: 7003 rows, 8957 columns, 36392 nonzeros
Presolved model has 1000 quadratic constraint(s)
Presolved model has 1 bilinear constraint(s)

Solving non-convex MIQCP

Variable types: 7955 continuous, 1002 integer (1002 binary)

Root relaxation: objective 1.522890e-03, 9271 iterations, 0.50 seconds (0.64 work units)

    Nodes    |    Current Node    |     Objective Bounds      |     Work
 Expl Unexpl |  Obj  Depth IntInf | Incumbent    BestBd   Gap | It/Node Time

     0     0    0.00152    0   11          -    0.00152      -     -    1s
     0     0    0.00153    0   11          -    0.00153      -     -    1s
     0     0    0.00213    0   11          -    0.00213      -     -    1s
     0     0    0.00213    0   11          -    0.00213      -     -    1s
     0     0    0.00213    0   11          -    0.00213      -     -    1s
     0     0    0.00213    0   11          -    0.00213      -     -    1s
     0     0    0.00271    0   11          -    0.00271      -     -    1s
H    0     0                       0.0352791    0.00271  92.3%     -    8s
     0     2    0.03458    0   11    0.03528    0.03458  1.99%     -    8s
*  111     1               7       0.0352744    0.03487  1.16%   9.1    9s
*  124     0              21       0.0348660    0.03487  0.00%   8.4    9s

Cutting planes:
  Implied bound: 1
  MIR: 2
  Flow cover: 5
  RLT: 9

Explored 128 nodes (11226 simplex iterations) in 9.63 seconds (8.08 work units)
Thread count was 4 (of 128 available processors)

Solution count 3: 0.034866 0.0352744 0.0352791 

Optimal solution found (tolerance 1.00e-03)
Best objective 3.486604043813e-02, best bound 3.486604043813e-02, gap 0.0000%
